webassembly/ejemplos_dzn/folder13_json_32.dzn
TERM = { '.', 's(5)', 's(2)', 's(4)', 's(9)', 'in_1', 'local_0', 'in_2', 'in_3', 's(8)', 's(6)', 's(1)', 's(0)', 's(7)', 's(3)', 'in_0'};
null = '.';
s = 13;
n = 9;
ndeps = 10;
max_registers_sz = 4;
NR = 1;
registers = [|'local_0', 's(7)'|];
dependencies = [|'i32.store16_0', 'i32.load16_s_2', |'i32.store16_0', 'i32.load8_s_3', |'i32.store16_0', 'i32.load16_s_4', |'i32.load16_s_2', 'call[function_index(0)]_5', |'i32.load8_s_3', 'call[function_index(0)]_5', |'i32.load16_s_4', 'call[function_index(0)]_5', |'call[function_index(0)]_5', 'i32.load16_s_6', |'i32.load16_s_6', 'i32.store8_7', |'i32.store8_7', 'i32.load8_u_12', |'i32.store8_7', 'i32.load16_u_8'|];
GET_ENUM = { GET1, GET2, GET3, GET4, GET5};
SET_ENUM = { SET1, SET2, SET3, SET4, SET5};
TEE_ENUM = { TEE1, TEE2, TEE3, TEE4, TEE5};
N = 11;
OP = { 'call[function_index(0)]_5', 'i32.store16_0', 'i32.sub_0', 'i32.load16_s_2', 'i32.load8_s_3', 'i32.load16_s_4', 'i32.load16_s_6', 'i32.store8_7', 'i32.load16_u_8', 'i32.const_0', 'i32.load8_u_12' };
in_ops = [0, 2, 2, 1, 1, 1, 1, 2, 1, 0, 1 ];
out_ops = [2, 0, 1, 1, 1, 1, 1, 0, 1, 1, 1 ];
in1 = ['.', 'in_0', 'in_2', 's(0)', 's(1)', 's(2)', 's(5)', 's(6)', 's(3)', '.', 's(9)' ];
in2 = ['.', 'in_1', 'in_3', '.', '.', '.', '.', 's(4)', '.', '.', '.' ];
in3 = ['.', '.', '.', '.', '.', '.', '.', '.', '.', '.', '.' ];
out1 = ['s(5)', '.', 's(0)', 's(1)', 's(2)', 's(3)', 's(6)', '.', 's(7)', 's(9)', 's(8)' ];
out2 = ['s(4)', '.', '.', '.', '.', '.', '.', '.', '.', '.', '.' ];
out3 = ['.', '.', '.', '.', '.', '.', '.', '.', '.', '.', '.' ];
comm = [false, false, false, false, false, false, false, false, false, false, false ];
gas = [1, 1, 1, 1, 1, 1, 1, 1, 1, 1, 1 ];
sz = [1, 1, 1, 1, 1, 1, 1, 1, 1, 1, 1 ];
stor = [true, true, false, false, false, false, false, true, false, false, false ];
lb = [ 1, 1, 1, 1, 1, 1, 1, 1, 1, 1, 1 ];
ub = [ 13, 13, 13, 13, 13, 13, 13, 13, 13, 13, 13 ];
startstack = [ 'in_0', 'in_1', 'in_2', 'in_3', null, null, null, null, null ];
endstack = [ 's(8)', null, null, null, null, null, null, null, null ];
